language Essence 1.3

letting class be
        function(1 --> 12, 2 --> 14, 3 --> 13, 4 --> 8, 5 --> 9, 6 --> 6, 7 --> 13, 8 --> 4, 9 --> 6, 10 --> 2,
                 11 --> 2, 12 --> 1, 13 --> 3, 14 --> 4, 15 --> 2, 16 --> 10, 17 --> 4, 18 --> 8, 19 --> 2, 20 --> 13,
                 21 --> 14, 22 --> 3, 23 --> 8, 24 --> 13, 25 --> 9, 26 --> 11, 27 --> 12, 28 --> 4, 29 --> 8, 30 --> 5,
                 31 --> 2, 32 --> 10, 33 --> 6, 34 --> 6, 35 --> 3, 36 --> 8, 37 --> 9, 38 --> 2, 39 --> 2, 40 --> 14,
                 41 --> 14, 42 --> 12, 43 --> 9, 44 --> 6, 45 --> 7)
letting deck_length be 156
letting deck_width be 149
letting length be
        function(1 --> 1, 2 --> 1, 3 --> 1, 4 --> 4, 5 --> 1, 6 --> 1, 7 --> 1, 8 --> 1, 9 --> 1, 10 --> 1, 11 --> 61,
                 12 --> 14, 13 --> 1, 14 --> 1, 15 --> 1, 16 --> 1, 17 --> 1, 18 --> 10, 19 --> 1, 20 --> 1, 21 --> 1,
                 22 --> 1, 23 --> 1, 24 --> 1, 25 --> 1, 26 --> 1, 27 --> 1, 28 --> 29, 29 --> 1, 30 --> 1, 31 --> 1,
                 32 --> 1, 33 --> 1, 34 --> 1, 35 --> 17, 36 --> 1, 37 --> 1, 38 --> 1, 39 --> 1, 40 --> 43, 41 --> 1,
                 42 --> 18, 43 --> 7, 44 --> 1, 45 --> 1)
letting n_classes be 14
letting n_containers be 45
letting separation be function()
letting width be
        function(1 --> 1, 2 --> 1, 3 --> 1, 4 --> 68, 5 --> 1, 6 --> 1, 7 --> 1, 8 --> 2, 9 --> 1, 10 --> 1, 11 --> 88,
                 12 --> 55, 13 --> 1, 14 --> 1, 15 --> 1, 16 --> 1, 17 --> 1, 18 --> 8, 19 --> 1, 20 --> 1, 21 --> 1,
                 22 --> 1, 23 --> 1, 24 --> 2, 25 --> 1, 26 --> 1, 27 --> 1, 28 --> 2, 29 --> 1, 30 --> 1, 31 --> 1,
                 32 --> 1, 33 --> 1, 34 --> 1, 35 --> 2, 36 --> 1, 37 --> 1, 38 --> 1, 39 --> 1, 40 --> 64, 41 --> 1,
                 42 --> 60, 43 --> 1, 44 --> 1, 45 --> 1)
